words_hard_train/3512.qaiger
aag 18 8 0 1 10
2
4
8
10
14
16
24
32
36
6 2 4
12 9 11
18 15 17
20 12 18
22 6 21
26 23 24
28 3 5
30 28 20
34 30 33
36 26 35
i0 2 y2[5]
i1 2 y2[6]
i2 2 y2[3]
i3 2 y2[4]
i4 2 y2[1]
i5 2 y2[2]
i6 2 y2[7]
i7 2 y2[0]
o0 bv[0]
c
simplified
  <=
    subtract
      subtract
        1 x1
        1 x1
      225
    unary minus
      2 y2
