words_hard_train/3512.qaiger.qdimacs
p cnf 18 31
a 0
e 1 2 3 4 5 6 7 8 9 10 11 12 13 14 15 16 17 18 0
-1 -2 3 0
1 -3 0
2 -3 0
4 5 6 0
-4 -6 0
-5 -6 0
7 8 9 0
-7 -9 0
-8 -9 0
-6 -9 10 0
6 -10 0
9 -10 0
-3 10 11 0
3 -11 0
-10 -11 0
11 -12 13 0
-11 -13 0
12 -13 0
1 2 14 0
-1 -14 0
-2 -14 0
-14 -10 15 0
14 -15 0
10 -15 0
-15 16 17 0
15 -17 0
-16 -17 0
-13 17 18 0
13 -18 0
-17 -18 0
18 0
